20486
20598
20598
20598
20598
20598
20643
20643
20643
20643
20643
20643
20643
20643
20643
20643
20643
20643
20643
20643
20643
20643
20643
20643
20643
20643
20643
20643
20643
20643
20643
20643
20673
20673
20688
20688
20688
20688
20688
20703
20703
20703
20703
20703
20703
20703
20703
20703
20703
20703
20763
20763
20763
20763
20763
20763
20763
20763
20763
20763
20763
20763
20778
20778
20778
20778
20778
20778
20778
20778
20778
20778
20778
20778
20793
20793
20793
20793
20793
20793
20793
20793
20793
20793
20793
20793
20793
20793
20793
20793
20793
20793
20793
20793
20793
20793
20793
20793
20793
